proyfinal/src/viki/013/experimentInOfficeAgust.take6.output/d0a84a5f-1b27-4d7f-a4a5-9edacefd1059.als.out
Reading from standard input... Use '--help' for help.
============================[ Problem Statistics ]=============================
|                                                                             |
|  Number of variables:         87638                                         |
|  Number of clauses:          161767                                         |
|  Parse time:                   0.04 s                                       |
|                                                                             |
============================[ Search Statistics ]==============================
| Conflicts |          ORIGINAL         |          LEARNT          | Progress |
|           |    Vars  Clauses Literals |    Limit  Clauses Lit/Cl |          |
===============================================================================
|       100 |   63740   110079   275284 |    40362      100     16 | 27.269 % |
|       250 |   63720   109999   275064 |    44398      225     23 | 27.292 % |
|       475 |   50156    71531   180087 |    48838      440     75 | 42.769 % |
|       812 |   50108    71235   179426 |    53722      764     70 | 42.824 % |
|      1318 |   50019    70829   178450 |    59094     1263     67 | 42.925 % |
|      2077 |   49910    70364   177331 |    65003     1993     67 | 43.050 % |
|      3216 |   49111    68029   171729 |    71504     3102     61 | 43.962 % |
|      4924 |   48055    63610   160748 |    78654     4771     53 | 45.166 % |
|      7486 |   47819    62851   158755 |    86520     7275     50 | 45.436 % |
===============================================================================
restarts              : 45
conflicts             : 10414          (7718 /sec)
decisions             : 36020          (0.00 % random) (26696 /sec)
propagations          : 15546975       (11522329 /sec)
conflict literals     : 490092         (43.21 % deleted)
Memory used           : 25.19 MB
CPU time              : 1.34929 s

UNSATISFIABLE
